This is Ipopt version 3.10.1, running with linear solver mumps.

Number of nonzeros in equality constraint Jacobian...:      141
Number of nonzeros in inequality constraint Jacobian.:        0
Number of nonzeros in Lagrangian Hessian.............:     2019

Total number of variables............................:       72
                     variables with only lower bounds:        0
                variables with lower and upper bounds:       72
                     variables with only upper bounds:        0
Total number of equality constraints.................:       47
Total number of inequality constraints...............:        0
        inequality constraints with only lower bounds:        0
   inequality constraints with lower and upper bounds:        0
        inequality constraints with only upper bounds:        0

iter    objective    inf_pr   inf_du lg(mu)  ||d||  lg(rg) alpha_du alpha_pr  ls
   0 -2.1584250e-03 1.00e-02 5.79e-03  -1.0 0.00e+00    -  0.00e+00 0.00e+00   0
   1 -2.0582466e-03 2.80e-10 1.94e-03  -1.7 2.10e-02    -  9.87e-01 1.00e+00h  1
   2 -1.8927344e-03 1.87e-10 4.24e-03  -2.5 2.62e-02    -  9.73e-01 1.00e+00f  1
   3 -2.2470707e-03 8.88e-16 3.33e-04  -3.8 3.14e-02    -  9.60e-01 1.00e+00f  1
   4 -1.1670457e-02 1.90e-12 1.27e-02  -5.7 3.46e-01  -2.0 5.92e-01 5.51e-01f  1
   5 -2.9060104e-03 6.66e-16 3.06e-02  -5.7 2.78e-01  -1.6 1.79e-01 1.00e+00h  1
   6 -1.7500596e-03 2.22e-16 2.16e-02  -5.7 6.13e-01  -2.1 9.42e-02 6.83e-01h  1
   7 -2.9823784e-03 2.22e-16 1.95e-03  -5.7 7.22e-02  -1.6 8.96e-01 1.00e+00f  1
   8 -2.6918776e-03 2.22e-16 4.29e-03  -5.7 2.40e-01  -2.1 4.65e-01 6.25e-02h  5
   9 -2.6918776e-03 2.22e-16 1.89e-03  -5.7 2.77e-01  -1.7 5.47e-01 1.19e-12h 36
iter    objective    inf_pr   inf_du lg(mu)  ||d||  lg(rg) alpha_du alpha_pr  ls
  10 -3.5102846e-03 4.44e-16 2.12e-03  -5.7 3.96e-02  -1.3 1.00e+00 8.55e-01f  1
  11 -8.6647545e-03 4.44e-16 6.73e-03  -5.7 2.36e+00  -1.7 6.02e-02 4.27e-02f  1
  12 -1.0640305e-02 4.44e-16 4.86e-02  -5.7 3.33e-01  -1.3 1.00e+00 8.57e-02f  1
  13 -1.2467257e-02 2.32e-12 3.32e-02  -5.7 5.19e-02  -0.9 2.45e-01 4.95e-01f  1
  14 -1.2854351e-02 2.53e-12 9.55e-02  -5.7 5.92e-01  -1.4 1.00e+00 9.08e-03f  1
  15 -1.7647029e-02 5.33e-13 4.85e-02  -5.7 7.42e-02  -0.9 4.40e-01 7.89e-01f  1
  16 -1.0012954e-02 4.70e-13 6.77e-02  -5.7 1.68e+00  -1.4 9.21e-03 1.19e-01h  1
  17 -1.0166372e-02 4.66e-13 1.25e-01  -5.7 2.50e+00  -1.0 1.20e-01 6.59e-03f  1
  18 -1.0287682e-02 4.66e-13 1.31e-01  -5.7 6.18e+01  -1.5 4.21e-03 3.38e-05f  1
  19 -1.0523151e-02 2.22e-16 4.81e-02  -5.7 1.03e-01  -1.0 7.25e-01 1.00e+00f  1
iter    objective    inf_pr   inf_du lg(mu)  ||d||  lg(rg) alpha_du alpha_pr  ls
  20 -1.1417647e-02 4.14e-13 3.72e-02  -5.7 5.86e-01  -1.5 3.89e-01 2.54e-02f  3
  21 -1.6065504e-02 1.10e-13 7.59e-03  -5.7 6.85e-02  -1.1 9.25e-01 7.35e-01f  1
  22 -2.1549247e-02 5.77e-14 2.54e-02  -5.7 6.31e-01  -1.6 9.76e-02 4.75e-01f  1
  23 -2.1970164e-02 3.75e-13 6.34e-02  -5.7 3.54e-01  -1.1 9.53e-01 1.39e-02f  1
  24 -2.2272982e-02 3.57e-13 2.42e-02  -5.7 4.80e-02  -0.7 1.00e+00 4.87e-02f  1
  25 -2.5836172e-02 2.82e-12 4.06e-02  -5.7 2.80e-01  -1.2 6.91e-01 1.21e-01f  1
  26 -3.1774672e-02 7.84e-13 1.44e-02  -5.7 6.57e-02  -0.8 1.00e+00 7.21e-01f  1
  27 -4.8119844e-02 6.30e-13 2.48e-02  -5.7 7.72e-01  -1.2 1.80e-01 1.97e-01f  1
  28 -5.5263052e-02 4.74e-13 3.98e-02  -5.7 2.00e-01  -0.8 1.00e+00 2.47e-01f  1
  29 -5.6425931e-02 4.69e-13 3.94e-02  -5.7 1.99e+00  -1.3 1.25e-02 1.09e-02f  1
iter    objective    inf_pr   inf_du lg(mu)  ||d||  lg(rg) alpha_du alpha_pr  ls
  30 -6.0542898e-02 4.31e-13 8.32e-02  -5.7 3.46e-01  -0.9 1.00e+00 8.12e-02f  1
  31 -6.5377843e-02 2.38e-13 2.86e-02  -5.7 6.71e-02  -0.4 1.00e+00 4.49e-01f  1
  32 -6.5728919e-02 5.06e-13 8.01e-02  -5.7 1.77e-01  -0.9 1.00e+00 9.38e-03f  1
  33 -7.2442296e-02 1.89e-15 1.31e-02  -5.7 4.06e-02  -0.5 1.00e+00 9.97e-01f  1
  34 -7.7653155e-02 5.44e-12 3.77e-02  -5.7 1.58e-01  -1.0 1.00e+00 2.00e-01f  1
  35 -7.9418873e-02 7.00e-12 3.22e-02  -5.7 4.25e-02  -0.5 8.29e-01 3.46e-01f  1
  36 -7.9698380e-02 6.85e-12 3.45e-02  -5.7 8.71e-02  -1.0 1.00e+00 2.07e-02f  1
  37 -8.2528043e-02 4.64e-12 1.92e-02  -5.7 2.54e-01  -1.5 2.03e-01 3.22e-01f  1
  38 -8.5359922e-02 1.74e-12 1.09e-02  -5.7 9.17e-02  -1.1 1.00e+00 6.25e-01f  1
  39 -8.7036994e-02 5.54e-12 1.14e-02  -5.7 4.98e-02  -0.6 1.00e+00 1.00e+00f  1
iter    objective    inf_pr   inf_du lg(mu)  ||d||  lg(rg) alpha_du alpha_pr  ls
  40 -9.5678376e-02 1.44e-11 1.73e-02  -5.7 7.79e-02  -1.1 4.97e-01 1.00e+00f  1
  41 -9.2582439e-02 9.28e-12 2.22e-02  -5.7 2.07e-01  -1.6 5.70e-01 3.55e-01h  1
  42 -9.5232168e-02 8.17e-12 1.88e-02  -5.7 4.48e-01  -2.1 5.74e-02 1.20e-01f  1
  43 -9.5225064e-02 8.17e-12 1.96e-02  -5.7 6.31e-01  -1.6 9.18e-03 4.93e-04f  6
  44 -9.5331655e-02 8.12e-12 1.97e-02  -5.7 3.66e-01  -1.2 2.24e-03 6.33e-03f  1
  45 -9.5901565e-02 6.78e-12 1.80e-02  -5.7 4.15e-02  -0.8 9.96e-02 2.49e-01f  1
  46 -9.6313405e-02 4.46e-12 8.28e-03  -5.7 1.31e-02  -0.4 7.14e-01 4.06e-01f  1
  47 -1.0021280e-01 4.59e-12 1.17e-02  -5.7 5.91e-02  -0.8 2.54e-01 8.96e-01f  1
  48 -1.0166854e-01 1.92e-12 1.01e-02  -5.7 2.66e-02  -0.4 8.39e-01 5.81e-01f  1
  49 -1.2244712e-01 8.92e-13 3.99e-02  -5.7 2.49e-01  -0.9 5.63e-03 5.36e-01f  1
iter    objective    inf_pr   inf_du lg(mu)  ||d||  lg(rg) alpha_du alpha_pr  ls
  50 -1.3249475e-01 6.97e-12 3.98e-02  -5.7 1.16e-01  -0.5 7.71e-01 3.22e-01f  1
  51 -1.5362115e-01 5.48e-12 4.19e-02  -5.7 4.76e-01  -0.9 2.58e-01 2.15e-01f  1
  52 -1.5529405e-01 5.09e-12 1.07e-01  -5.7 1.10e-01  -0.5 8.09e-01 7.01e-02f  1
  53 -1.5823389e-01 1.14e-11 3.44e-02  -5.7 2.07e-02  -0.1 1.00e+00 5.30e-01f  1
  54 -1.5983824e-01 1.03e-11 5.72e-02  -5.7 6.22e-02  -0.6 1.00e+00 9.75e-02f  1
  55 -1.7250216e-01 6.00e-12 4.03e-02  -5.7 2.96e-01  -1.0 4.71e-01 4.17e-01f  1
  56 -1.7249404e-01 5.99e-12 9.76e-02  -5.7 5.97e-02    -  1.00e+00 1.09e-03f 10
  57 -1.7110335e-01 4.36e-13 1.58e-02  -5.7 4.86e-02  -1.5 1.00e+00 9.27e-01h  1
  58 -1.7121000e-01 2.22e-16 1.49e-03  -5.7 2.32e-03  -0.2 1.00e+00 1.00e+00f  1
  59 -1.7218861e-01 1.53e-12 3.06e-03  -5.7 1.20e-02  -0.7 1.00e+00 1.00e+00f  1
iter    objective    inf_pr   inf_du lg(mu)  ||d||  lg(rg) alpha_du alpha_pr  ls
  60 -1.7290303e-01 7.03e-13 3.28e-03  -5.7 5.59e-03  -0.2 1.00e+00 1.00e+00f  1
  61 -1.8480466e-01 2.22e-16 1.57e-02  -5.7 4.34e-02  -0.7 1.00e+00 1.00e+00f  1
  62 -1.7518727e-01 2.22e-16 2.64e-02  -5.7 6.32e-02    -  1.00e+00 5.00e-01h  2
  63 -1.7660830e-01 2.22e-16 9.16e-03  -5.7 1.24e-02  -0.3 1.00e+00 5.00e-01f  2
  64 -1.7533745e-01 2.22e-16 2.06e-02  -5.7 4.30e-02    -  1.00e+00 1.25e-01h  4
  65 -2.3464432e-01 2.22e-16 7.05e-02  -5.7 1.03e-01  -0.8 1.00e+00 1.00e+00f  1
Restoration phase is called at point that is almost feasible,
  with constraint violation 1.443290e-15. Abort.

Number of Iterations....: 65

                                   (scaled)                 (unscaled)
Objective...............:  -2.3464432287597176e-01   -2.3464432287597176e-01
Dual infeasibility......:   7.0463866041408391e-02    7.0463866041408391e-02
Constraint violation....:   2.2204460492503131e-16    2.2204460492503131e-16
Complementarity.........:   1.8449144625270318e-06    1.8449144625270318e-06
Overall NLP error.......:   7.0463866041408391e-02    7.0463866041408391e-02


Number of objective function evaluations             = 157
Number of objective gradient evaluations             = 67
Number of equality constraint evaluations            = 157
Number of inequality constraint evaluations          = 0
Number of equality constraint Jacobian evaluations   = 1
Number of inequality constraint Jacobian evaluations = 0
Number of Lagrangian Hessian evaluations             = 66
Total CPU secs in IPOPT (w/o function evaluations)   =      0.180
Total CPU secs in NLP function evaluations           =      1.410

EXIT: Restoration Failed!
